c CNF file corresponding to a (partial) station packing problem.
p cnf 3592 229
1 2 3 4 5 6 7 8 9 10 11 12 13 14 0
-1 -2 0
-1 -3 0
-1 -4 0
-1 -5 0
-1 -6 0
-1 -7 0
-1 -8 0
-1 -9 0
-1 -10 0
-1 -11 0
-1 -12 0
-1 -13 0
-1 -14 0
-2 -3 0
-2 -4 0
-2 -5 0
-2 -6 0
-2 -7 0
-2 -8 0
-2 -9 0
-2 -10 0
-2 -11 0
-2 -12 0
-2 -13 0
-2 -14 0
-3 -4 0
-3 -5 0
-3 -6 0
-3 -7 0
-3 -8 0
-3 -9 0
-3 -10 0
-3 -11 0
-3 -12 0
-3 -13 0
-3 -14 0
-4 -5 0
-4 -6 0
-4 -7 0
-4 -8 0
-4 -9 0
-4 -10 0
-4 -11 0
-4 -12 0
-4 -13 0
-4 -14 0
-5 -6 0
-5 -7 0
-5 -8 0
-5 -9 0
-5 -10 0
-5 -11 0
-5 -12 0
-5 -13 0
-5 -14 0
-6 -7 0
-6 -8 0
-6 -9 0
-6 -10 0
-6 -11 0
-6 -12 0
-6 -13 0
-6 -14 0
-7 -8 0
-7 -9 0
-7 -10 0
-7 -11 0
-7 -12 0
-7 -13 0
-7 -14 0
-8 -9 0
-8 -10 0
-8 -11 0
-8 -12 0
-8 -13 0
-8 -14 0
-9 -10 0
-9 -11 0
-9 -12 0
-9 -13 0
-9 -14 0
-10 -11 0
-10 -12 0
-10 -13 0
-10 -14 0
-11 -12 0
-11 -13 0
-11 -14 0
-12 -13 0
-12 -14 0
-13 -14 0
3576 3577 3578 3579 3580 3581 3582 3583 3584 3585 3586 3587 3588 3589 3590 3591 3592 0
-3576 -3577 0
-3576 -3578 0
-3576 -3579 0
-3576 -3580 0
-3576 -3581 0
-3576 -3582 0
-3576 -3583 0
-3576 -3584 0
-3576 -3585 0
-3576 -3586 0
-3576 -3587 0
-3576 -3588 0
-3576 -3589 0
-3576 -3590 0
-3576 -3591 0
-3576 -3592 0
-3577 -3578 0
-3577 -3579 0
-3577 -3580 0
-3577 -3581 0
-3577 -3582 0
-3577 -3583 0
-3577 -3584 0
-3577 -3585 0
-3577 -3586 0
-3577 -3587 0
-3577 -3588 0
-3577 -3589 0
-3577 -3590 0
-3577 -3591 0
-3577 -3592 0
-3578 -3579 0
-3578 -3580 0
-3578 -3581 0
-3578 -3582 0
-3578 -3583 0
-3578 -3584 0
-3578 -3585 0
-3578 -3586 0
-3578 -3587 0
-3578 -3588 0
-3578 -3589 0
-3578 -3590 0
-3578 -3591 0
-3578 -3592 0
-3579 -3580 0
-3579 -3581 0
-3579 -3582 0
-3579 -3583 0
-3579 -3584 0
-3579 -3585 0
-3579 -3586 0
-3579 -3587 0
-3579 -3588 0
-3579 -3589 0
-3579 -3590 0
-3579 -3591 0
-3579 -3592 0
-3580 -3581 0
-3580 -3582 0
-3580 -3583 0
-3580 -3584 0
-3580 -3585 0
-3580 -3586 0
-3580 -3587 0
-3580 -3588 0
-3580 -3589 0
-3580 -3590 0
-3580 -3591 0
-3580 -3592 0
-3581 -3582 0
-3581 -3583 0
-3581 -3584 0
-3581 -3585 0
-3581 -3586 0
-3581 -3587 0
-3581 -3588 0
-3581 -3589 0
-3581 -3590 0
-3581 -3591 0
-3581 -3592 0
-3582 -3583 0
-3582 -3584 0
-3582 -3585 0
-3582 -3586 0
-3582 -3587 0
-3582 -3588 0
-3582 -3589 0
-3582 -3590 0
-3582 -3591 0
-3582 -3592 0
-3583 -3584 0
-3583 -3585 0
-3583 -3586 0
-3583 -3587 0
-3583 -3588 0
-3583 -3589 0
-3583 -3590 0
-3583 -3591 0
-3583 -3592 0
-3584 -3585 0
-3584 -3586 0
-3584 -3587 0
-3584 -3588 0
-3584 -3589 0
-3584 -3590 0
-3584 -3591 0
-3584 -3592 0
-3585 -3586 0
-3585 -3587 0
-3585 -3588 0
-3585 -3589 0
-3585 -3590 0
-3585 -3591 0
-3585 -3592 0
-3586 -3587 0
-3586 -3588 0
-3586 -3589 0
-3586 -3590 0
-3586 -3591 0
-3586 -3592 0
-3587 -3588 0
-3587 -3589 0
-3587 -3590 0
-3587 -3591 0
-3587 -3592 0
-3588 -3589 0
-3588 -3590 0
-3588 -3591 0
-3588 -3592 0
-3589 -3590 0
-3589 -3591 0
-3589 -3592 0
-3590 -3591 0
-3590 -3592 0
-3591 -3592 0
